(set-info :status unknown)
(declare-fun C () (_ BitVec 35))
(declare-fun %Y () (_ BitVec 35))
(declare-fun %X () (_ BitVec 35))
(declare-fun |ana_isPowerOf2(abs(C))| () (_ BitVec 1))
(assert
 (let (($x6560 (and (distinct (bvmul (bvsub %Y %X) C) (bvmul (bvsub %X %Y) (ite (bvsge C (_ bv0 35)) C (bvneg C)))) true)))
 (let (($x248 (= |ana_isPowerOf2(abs(C))| (_ bv1 1))))
 (let ((?x4239 (ite (bvsge C (_ bv0 35)) C (bvneg C))))
 (let (($x22983 (=> $x248 (and (and (distinct ?x4239 (_ bv0 35)) true) (= (bvand ?x4239 (bvsub ?x4239 (_ bv1 35))) (_ bv0 35))))))
 (and $x22983 (bvslt C (_ bv0 35)) $x248 $x6560))))))
(check-sat)
